c CNF file generated from BLIF2CNF script.
c Original BLIF file was blif/shiftreg.blif
p cnf 33 65
 -1 0
1 -  0
-1 - 0
-2 -4 0
4 2  0
-4 3 0
-3 4  0
-5 -7 0
7 5  0
-7 6 0
-6 7  0
-8 -10 0
10 8  0
-10 9 0
-9 10  0
-11 -13 0
13 11  0
-13 12 0
-12 13  0
14 -17 0
-15 -17 0
17 -14 15  0
-17 16 0
-16 17  0
-14 -19 0
15 -19 0
19 14 -15  0
-19 18 0
-18 19  0
-20 -22 0
15 -22 0
22 20 -15  0
-22 21 0
-21 22  0
20 -24 0
-15 -24 0
24 -20 15  0
-24 23 0
-23 24  0
25 -27 0
27 -25  0
-27 26 0
-26 27  0
20 -29 0
29 -20  0
-29 28 0
-28 29  0
-16 -30 0
-18 -30 0
30 16 18  0
-30 5 0
-5 30  0
-21 -31 0
-23 -31 0
31 21 23  0
-31 8 0
-8 31  0
-28 -32 0
32 28  0
-32 11 0
-11 32  0
-26 -33 0
33 26  0
-33 2 0
-2 33  0
